435
1 4 3 4 13 408
2 5 3 5 6 408 412
3 7 1 2 4 5 7 408 412
4 5 1 3 7 13 16
5 4 2 3 6 7
6 4 2 5 408 412
7 3 3 4 5
8 1 9
9 3 8 10 16
10 3 9 17 19
11 6 12 13 14 15 18 21
12 5 11 13 16 18 21
13 9 1 4 11 12 15 16 30 401 408
14 3 11 15 21
15 6 11 13 14 21 23 30
16 6 4 9 12 13 17 18
17 4 10 16 18 19
18 5 11 12 16 17 19
19 3 10 17 18
20 1 21
21 5 11 12 14 15 20
22 7 24 25 32 38 41 44 403
23 5 15 30 32 34 37
24 6 22 25 28 38 39 46
25 5 22 24 28 31 32
26 3 27 31 33
27 4 26 28 31 33
28 7 24 25 27 29 31 46 64
29 2 28 64
30 6 13 15 23 32 401 415
31 7 25 26 27 28 32 33 34
32 7 22 23 25 30 31 34 415
33 6 26 27 31 34 35 37
34 5 23 31 32 33 37
35 3 33 36 37
36 2 35 37
37 5 23 33 34 35 36
38 6 22 24 39 41 48 53
39 4 24 38 46 53
40 5 42 45 136 422 424
41 5 22 38 43 44 48
42 6 40 44 45 406 409 424
43 4 41 44 45 48
44 7 22 41 42 43 45 403 409
45 7 40 42 43 44 48 66 136
46 6 24 28 39 53 59 64
47 5 49 52 54 55 59
48 9 38 41 43 45 49 53 60 66 71
49 7 47 48 53 55 57 59 60
50 6 51 52 57 62 67 68
51 6 50 52 54 58 67 69
52 6 47 50 51 54 55 57
53 6 38 39 46 48 49 59
54 6 47 51 52 58 59 63
55 4 47 49 52 57
56 3 61 63 64
57 6 49 50 52 55 60 62
58 4 51 54 61 63
59 7 46 47 49 53 54 63 64
60 7 48 49 57 62 68 71 75
61 3 56 58 63
62 4 50 57 60 68
63 5 54 56 58 59 61
64 5 28 29 46 56 59
65 4 67 68 74 78
66 8 45 48 70 71 75 136 142 150
67 6 50 51 65 68 69 78
68 7 50 60 62 65 67 74 75
69 3 51 67 78
70 5 66 72 75 76 150
71 4 48 60 66 75
72 5 70 73 74 75 76
73 5 72 74 76 79 80
74 7 65 68 72 73 75 78 80
75 7 60 66 68 70 71 72 74
76 7 70 72 73 79 112 114 150
77 3 78 80 81
78 6 65 67 69 74 77 80
79 10 73 76 80 81 87 96 98 112 116 117
80 6 73 74 77 78 79 81
81 5 77 79 80 83 87
82 4 86 88 91 103
83 4 81 87 89 97
84 4 85 86 88 89
85 8 84 86 89 93 95 97 102 105
86 5 82 84 85 88 93
87 6 79 81 83 97 98 99
88 3 82 84 86
89 3 83 84 85
90 4 91 101 103 110
91 6 82 90 92 93 101 103
92 4 91 93 101 105
93 5 85 86 91 92 105
94 5 104 105 106 107 108
95 6 85 96 100 102 105 106
96 7 79 95 98 99 100 102 117
97 5 83 85 87 99 102
98 4 79 87 96 99
99 5 87 96 97 98 102
100 4 95 96 106 117
101 6 90 91 92 104 105 110
102 5 85 95 96 97 99
103 3 82 90 91
104 6 94 101 105 108 110 111
105 8 85 92 93 94 95 101 104 106
106 6 94 95 100 105 107 117
107 7 94 106 108 109 117 127 151
108 7 94 104 107 109 111 113 115
109 8 107 108 113 120 121 125 126 127
110 5 90 101 104 111 115
111 4 104 108 110 115
112 4 76 79 114 116
113 5 108 109 115 119 120
114 5 76 112 116 150 151
115 4 108 110 111 113
116 5 79 112 114 117 151
117 7 79 96 100 106 107 116 151
118 4 119 120 121 122
119 3 113 118 120
120 5 109 113 118 119 121
121 5 109 118 120 122 125
122 5 118 121 123 124 125
123 3 122 124 134
124 5 122 123 125 126 132
125 5 109 121 122 124 126
126 5 109 124 125 127 132
127 5 107 109 126 132 151
128 4 129 130 131 133
129 3 128 131 135
130 6 128 131 132 133 151 153
131 5 128 129 130 135 153
132 7 124 126 127 130 133 134 151
133 4 128 130 132 134
134 3 123 132 133
135 7 129 131 138 140 153 154 159
136 7 40 45 66 142 155 422 423
137 7 141 142 145 149 155 157 162
138 2 135 154
139 3 140 154 156
140 7 135 139 145 148 154 156 159
141 6 137 155 162 207 227 234
142 7 66 136 137 144 150 155 157
143 3 146 147 152
144 5 142 145 148 150 157
145 7 137 140 144 148 149 156 157
146 4 143 147 149 161
147 6 143 146 149 152 162 243
148 6 140 144 145 150 158 159
149 7 137 145 146 147 156 161 162
150 11 66 70 76 114 142 144 148 151 153 158 159
151 9 107 114 116 117 127 130 132 150 153
152 4 143 147 160 243
153 6 130 131 135 150 151 159
154 5 135 138 139 140 156
155 8 136 137 141 142 208 211 227 423
156 6 139 140 145 149 154 161
157 4 137 142 144 145
158 3 148 150 159
159 6 135 140 148 150 153 158
160 4 152 215 218 243
161 3 146 149 156
162 7 137 141 147 149 220 234 243
163 7 164 167 168 172 173 241 308
164 4 163 170 241 308
165 5 168 169 319 320 322
166 6 169 171 172 175 237 238
167 4 163 168 307 308
168 10 163 165 167 169 173 281 284 306 307 319
169 9 165 166 168 171 173 175 239 255 320
170 6 164 240 241 285 305 308
171 4 166 169 172 173
172 7 163 166 171 173 238 241 242
173 5 163 168 169 171 172
174 5 175 202 204 230 239
175 7 166 169 174 229 230 237 239
176 7 177 178 181 182 184 185 229
177 8 176 178 182 184 185 190 191 229
178 2 176 177
179 5 184 186 209 210 232
180 6 181 186 194 195 244 251
181 9 176 180 182 183 185 193 195 213 244
182 6 176 177 181 213 229 230
183 3 181 193 213
184 10 176 177 179 185 186 188 191 210 231 244
185 6 176 177 181 184 186 244
186 8 179 180 184 185 187 232 244 251
187 6 186 206 216 232 248 251
188 6 184 189 191 231 235 236
189 7 188 221 231 235 236 238 242
190 5 177 191 229 235 237
191 5 177 184 188 190 235
192 5 193 194 195 212 213
193 5 181 183 192 195 213
194 8 180 192 195 196 197 212 245 251
195 5 180 181 192 193 194
196 4 194 197 245 248
197 3 194 196 212
198 6 200 203 246 254 258 260
199 5 201 212 213 214 258
200 5 198 201 203 204 258
201 5 199 200 204 214 258
202 4 174 204 239 246
203 4 198 200 204 246
204 8 174 200 201 202 203 214 230 246
205 4 209 232 233 250
206 7 187 207 216 232 233 247 250
207 7 141 206 208 227 234 247 250
208 6 155 207 211 227 249 250
209 8 179 205 210 211 228 232 249 250
210 9 179 184 209 211 221 225 228 231 421
211 11 155 208 209 210 228 249 419 420 421 423 435
212 5 192 194 197 199 213
213 9 181 182 183 192 193 199 212 214 230
214 5 199 201 204 213 230
215 4 160 218 243 248
216 6 187 206 217 219 247 248
217 6 216 219 220 243 247 248
218 3 160 215 248
219 3 216 217 248
220 5 162 217 234 243 247
221 7 189 210 223 225 226 231 242
222 11 223 224 226 274 310 311 312 313 315 397 431
223 8 221 222 226 240 242 274 285 287
224 4 222 226 431 433
225 4 210 221 226 421
226 7 221 222 223 224 225 421 433
227 4 141 155 207 208
228 3 209 210 211
229 7 175 176 177 182 190 230 237
230 7 174 175 182 204 213 214 229
231 5 184 188 189 210 221
232 7 179 186 187 205 206 209 233
233 4 205 206 232 250
234 5 141 162 207 220 247
235 7 188 189 190 191 236 237 238
236 3 188 189 235
237 6 166 175 190 229 235 238
238 6 166 172 189 235 237 242
239 6 169 174 175 202 246 255
240 5 170 223 241 242 285
241 6 163 164 170 172 240 242
242 7 172 189 221 223 238 240 241
243 8 147 152 160 162 215 217 220 248
244 5 180 181 184 185 186
245 4 194 196 248 251
246 7 198 202 203 204 239 254 255
247 6 206 207 216 217 220 234
248 10 187 196 215 216 217 218 219 243 245 251
249 4 208 209 211 250
250 7 205 206 207 208 209 233 249
251 6 180 186 187 194 245 248
252 4 255 256 320 321
253 3 257 259 260
254 5 198 246 255 256 260
255 7 169 239 246 252 254 256 320
256 4 252 254 255 260
257 2 253 260
258 6 198 199 200 201 259 260
259 3 253 258 260
260 7 198 253 254 256 257 258 259
261 7 262 265 266 273 281 319 321
262 5 261 264 266 281 283
263 5 264 266 273 302 318
264 5 262 263 266 283 318
265 3 261 266 273
266 6 261 262 263 264 265 273
267 5 268 269 288 311 315
268 7 267 288 297 310 311 396 397
269 6 267 280 288 292 314 315
270 5 271 272 279 303 304
271 6 270 279 293 296 304 307
272 5 270 277 279 303 309
273 6 261 263 265 266 302 321
274 7 222 223 275 286 287 309 313
275 4 274 286 303 309
276 6 277 278 291 316 317 341
277 8 272 276 278 279 280 290 291 309
278 6 276 277 279 295 316 318
279 7 270 271 272 277 278 295 296
280 6 269 277 290 292 309 314
281 7 168 261 262 282 283 284 319
282 7 281 283 284 294 295 306 318
283 5 262 264 281 282 318
284 4 168 281 282 306
285 6 170 223 240 286 287 305
286 7 274 275 285 287 303 304 305
287 4 223 274 285 286
288 6 267 268 269 292 297 298
289 5 290 291 299 340 341
290 6 277 280 289 291 292 299
291 5 276 277 289 290 341
292 6 269 280 288 290 298 299
293 5 271 294 296 306 307
294 5 282 293 295 296 306
295 6 278 279 282 294 296 318
296 5 271 279 293 294 295
297 5 268 288 298 300 396
298 8 288 292 297 299 300 301 337 339
299 6 289 290 292 298 339 340
300 5 297 298 301 396 399
301 4 298 300 336 399
302 7 263 273 316 317 318 323 324
303 6 270 272 275 286 304 309
304 6 270 271 286 303 305 307
305 6 170 285 286 304 307 308
306 6 168 282 284 293 294 307
307 8 167 168 271 293 304 305 306 308
308 6 163 164 167 170 305 307
309 8 272 274 275 277 280 303 313 314
310 4 222 268 311 397
311 6 222 267 268 310 312 315
312 3 222 311 315
313 5 222 274 309 314 315
314 5 269 280 309 313 315
315 7 222 267 269 311 312 313 314
316 5 276 278 302 317 318
317 6 276 302 316 324 325 341
318 8 263 264 278 282 283 295 302 316
319 6 165 168 261 281 321 322
320 6 165 169 252 255 321 322
321 6 252 261 273 319 320 322
322 4 165 319 320 321
323 4 302 324 355 356
324 6 302 317 323 325 328 356
325 8 317 324 326 327 328 341 343 344
326 3 325 327 328
327 7 325 326 328 329 332 333 344
328 8 324 325 326 327 329 352 353 356
329 6 327 328 330 332 347 352
330 5 329 331 332 345 347
331 3 330 332 342
332 7 327 329 330 331 333 334 342
333 7 327 332 334 335 337 338 344
334 6 332 333 335 336 342 400
335 4 333 334 336 337
336 6 301 334 335 337 399 400
337 6 298 333 335 336 338 339
338 5 333 337 339 343 344
339 6 298 299 337 338 340 343
340 5 289 299 339 341 343
341 7 276 289 291 317 325 340 343
342 4 331 332 334 400
343 6 325 338 339 340 341 344
344 5 325 327 333 338 343
345 4 330 346 347 376
346 5 345 347 354 376 377
347 6 329 330 345 346 352 354
348 5 350 351 353 356 357
349 3 350 351 361
350 5 348 349 351 356 361
351 5 348 349 350 357 360
352 8 328 329 347 353 354 357 379 385
353 5 328 348 352 356 357
354 5 346 347 352 377 379
355 3 323 356 361
356 8 323 324 328 348 350 353 355 361
357 7 348 351 352 353 359 360 385
358 4 359 365 367 385
359 3 357 358 360
360 3 351 357 359
361 4 349 350 355 356
362 7 363 364 372 373 374 383 388
363 3 362 364 372
364 4 362 363 372 383
365 3 358 366 367
366 4 365 367 371 382
367 7 358 365 366 368 371 384 385
368 5 367 369 371 384 387
369 6 368 370 371 386 387 391
370 6 369 371 382 388 389 391
371 5 366 367 368 369 370
372 5 362 363 364 374 375
373 6 362 374 378 380 381 388
374 6 362 372 373 375 376 381
375 2 372 374
376 5 345 346 374 377 381
377 6 346 354 376 378 379 381
378 6 373 377 379 380 381 386
379 7 352 354 377 378 385 386 387
380 6 373 378 386 388 389 390
381 5 373 374 376 377 378
382 4 366 370 383 388
383 4 362 364 382 388
384 4 367 368 385 387
385 7 352 357 358 367 379 384 387
386 7 369 378 379 380 387 390 391
387 6 368 369 379 384 385 386
388 7 362 370 373 380 382 383 389
389 5 370 380 388 390 391
390 4 380 386 389 391
391 5 369 370 386 389 390
392 5 393 394 395 398 400
393 5 392 398 402 411 413
394 6 392 395 396 397 398 399
395 4 392 394 399 400
396 6 268 297 300 394 397 399
397 9 222 268 310 394 396 398 413 431 432
398 5 392 393 394 397 413
399 7 300 301 336 394 395 396 400
400 6 334 336 342 392 395 399
401 6 13 30 408 410 415 416
402 5 393 404 407 411 413
403 5 22 44 409 410 415
404 6 402 407 408 413 414 416
405 5 406 413 425 428 432
406 7 42 405 409 413 414 424 428
407 5 402 404 408 411 412
408 10 1 2 3 6 13 401 404 407 412 416
409 6 42 44 403 406 410 414
410 6 401 403 409 414 415 416
411 4 393 402 407 412
412 6 2 3 6 407 408 411
413 9 393 397 398 402 404 405 406 414 432
414 6 404 406 409 410 413 416
415 5 30 32 401 403 410
416 5 401 404 408 410 414
417 5 418 426 427 428 434
418 7 417 420 421 426 427 431 433
419 6 211 422 423 430 434 435
420 6 211 418 421 427 434 435
421 7 210 211 225 226 418 420 433
422 6 40 136 419 423 424 430
423 5 136 155 211 419 422
424 7 40 42 406 422 428 429 430
425 5 405 426 428 431 432
426 6 417 418 425 428 431 432
427 4 417 418 420 434
428 8 405 406 417 424 425 426 429 434
429 4 424 428 430 434
430 5 419 422 424 429 434
431 8 222 224 397 418 425 426 432 433
432 6 397 405 413 425 426 431
433 5 224 226 418 421 431
434 8 417 419 420 427 428 429 430 435
435 4 211 419 420 434
